Academic license - for non-commercial use only
Gurobi Optimizer version 9.0.3 build v9.0.3rc0 (linux64)
Optimize a model with 21 rows, 75 columns and 140 nonzeros
Model fingerprint: 0x72233960
Variable types: 0 continuous, 75 integer (75 binary)
Coefficient statistics:
  Matrix range     [1e+00, 1e+01]
  Objective range  [1e+00, 5e+02]
  Bounds range     [1e+00, 1e+00]
  RHS range        [1e+00, 1e+00]
Callback 0
vtx : 1 2 3 4 5 6 7 8 9 10 
root : 10
#edges : 0
Adicionado corte
Cut : 1 2 3 4 5 6 7 8 9 (9)
1 0
2 0
3 0
4 0
5 0
6 0
7 0
8 0
9 0
begin edges
1 10
2 10
3 10
4 10
5 10
6 10
7 10
8 10
9 10
end edges
Callback 1
vtx : 1 2 3 4 5 10 
root : 10
#edges : 0
Adicionado corte
Cut : 1 2 3 4 5 6 7 8 9 (9)
1 0
2 0
3 0
4 0
5 0
6 0
7 0
8 0
9 0
begin edges
1 10
2 10
3 10
4 10
5 10
6 10
7 10
8 10
9 10
end edges
Presolve removed 0 rows and 10 columns
Presolve time: 0.01s
Presolved: 21 rows, 65 columns, 130 nonzeros
Variable types: 0 continuous, 65 integer (65 binary)
Callback 2
vtx : 1 2 3 4 5 6 7 8 9 10 
root : 10
#edges : 0
Adicionado corte
Cut : 1 2 3 4 5 6 7 8 9 (9)
1 -0
2 -0
3 -0
4 -0
5 -0
6 -0
7 -0
8 -0
9 -0
begin edges
1 10
2 10
3 10
4 10
5 10
6 10
7 10
8 10
9 10
end edges
Callback 3
vtx : 1 2 3 4 5 6 7 8 9 10 
root : 1
#edges : 0
Adicionado corte
Cut : 2 3 4 5 6 7 8 9 10 (9)
2 -0
3 -0
4 -0
5 -0
6 -0
7 -0
8 -0
9 -0
10 -0
begin edges
2 1
3 1
4 1
5 1
6 1
7 1
8 1
9 1
10 1
end edges

Root relaxation: objective 0.000000e+00, 4 iterations, 0.00 seconds

    Nodes    |    Current Node    |     Objective Bounds      |     Work
 Expl Unexpl |  Obj  Depth IntInf | Incumbent    BestBd   Gap | It/Node Time

     0     0    0.00000    0    4          -    0.00000      -     -    0s
Callback 4
vtx : 10 
root : 10
#edges : 0
Adicionado corte
Cut : 1 2 3 4 5 6 7 8 9 (9)
1 -0
2 -0
3 -0
4 -0
5 -0
6 -0
7 -0
8 -0
9 -0
begin edges
1 10
2 10
3 10
4 10
5 10
6 10
7 10
8 10
9 10
end edges
H    0     0                     480.0000000    0.00000   100%     -    0s
Callback 5
vtx : 1 2 3 4 5 9 
root : 9
#edges : 0
Adicionado corte
Cut : 1 2 3 4 5 6 7 8 10 (9)
1 -0
2 -0
3 -0
4 -0
5 -0
6 -0
7 -0
8 -0
10 -0
begin edges
1 9
2 9
3 9
4 9
5 9
6 9
7 9
8 9
10 9
end edges
Callback 6
vtx : 1 2 3 4 5 10 
root : 1
1 2 1
#edges : 1
Adicionado corte
Cut : 3 4 5 6 7 8 9 10 (8)
3 -0
4 -0
5 -0
6 -0
7 -0
8 -0
9 -0
10 -0
begin edges
3 1
3 2
4 1
4 2
5 1
5 2
6 1
6 2
7 1
7 2
8 1
8 2
9 1
9 2
10 1
10 2
end edges
Callback 7
vtx : 1 2 3 4 5 7 8 9 
root : 1
1 2 1
2 9 1
#edges : 2
Adicionado corte
Cut : 3 4 5 6 7 8 10 (7)
3 -0
4 -0
5 -0
6 -0
7 -0
8 -0
10 -0
begin edges
3 1
3 2
3 9
4 1
4 2
4 9
5 1
5 2
5 9
6 1
6 2
6 9
7 1
7 2
7 9
8 1
8 2
8 9
10 1
10 2
10 9
end edges
Callback 8
vtx : 1 2 3 4 5 7 8 9 
root : 1
1 2 1
2 7 1
#edges : 2
Adicionado corte
Cut : 3 4 5 6 8 9 10 (7)
3 -0
4 -0
5 -0
6 -0
8 -0
9 -0
10 -0
begin edges
3 1
3 2
3 7
4 1
4 2
4 7
5 1
5 2
5 7
6 1
6 2
6 7
8 1
8 2
8 7
9 1
9 2
9 7
10 1
10 2
10 7
end edges
Callback 9
vtx : 1 2 3 4 5 7 8 9 
root : 1
1 2 1
2 8 1
#edges : 2
Adicionado corte
Cut : 3 4 5 6 7 9 10 (7)
3 -0
4 -0
5 -0
6 -0
7 -0
9 -0
10 -0
begin edges
3 1
3 2
3 8
4 1
4 2
4 8
5 1
5 2
5 8
6 1
6 2
6 8
7 1
7 2
7 8
9 1
9 2
9 8
10 1
10 2
10 8
end edges
Callback 10
vtx : 1 2 3 4 5 7 8 9 
root : 1
1 2 1
2 8 1
2 9 1
#edges : 3
Adicionado corte
Cut : 3 4 5 6 7 10 (6)
3 -0
4 -0
5 -0
6 -0
7 -0
10 -0
begin edges
3 1
3 2
3 8
3 9
4 1
4 2
4 8
4 9
5 1
5 2
5 8
5 9
6 1
6 2
6 8
6 9
7 1
7 2
7 8
7 9
10 1
10 2
10 8
10 9
end edges
Callback 11
vtx : 1 2 3 4 5 7 8 9 
root : 1
1 2 1
2 7 1
2 9 1
#edges : 3
Adicionado corte
Cut : 3 4 5 6 8 10 (6)
3 -0
4 -0
5 -0
6 -0
8 -0
10 -0
begin edges
3 1
3 2
3 7
3 9
4 1
4 2
4 7
4 9
5 1
5 2
5 7
5 9
6 1
6 2
6 7
6 9
8 1
8 2
8 7
8 9
10 1
10 2
10 7
10 9
end edges
Callback 12
vtx : 1 2 3 4 5 7 8 9 10 
root : 1
2 7 1
2 8 1
1 9 1
#edges : 3
Adicionado corte
Cut : 2 3 4 5 6 7 8 10 (8)
2 -0
3 -0
4 -0
5 -0
6 -0
7 -0
8 -0
10 -0
begin edges
2 1
2 9
3 1
3 9
4 1
4 9
5 1
5 9
6 1
6 9
7 1
7 9
8 1
8 9
10 1
10 9
end edges
Callback 13
vtx : 1 2 3 4 5 7 8 9 
root : 1
2 7 1
2 8 1
1 9 1
2 9 1
#edges : 4
Adicionado corte
Cut : 3 4 5 6 10 (5)
3 -0
4 -0
5 -0
6 -0
10 -0
begin edges
3 1
3 2
3 7
3 8
3 9
4 1
4 2
4 7
4 8
4 9
5 1
5 2
5 7
5 8
5 9
6 1
6 2
6 7
6 8
6 9
10 1
10 2
10 7
10 8
10 9
end edges
Callback 14
vtx : 1 2 
root : 2
#edges : 0
Adicionado corte
Cut : 1 3 4 5 6 7 8 9 10 (9)
1 0
3 -0
4 -0
5 -0
6 -0
7 -0
8 -0
9 -0
10 0
begin edges
1 2
3 2
4 2
5 2
6 2
7 2
8 2
9 2
10 2
end edges
Callback 15
vtx : 2 
root : 2
#edges : 0
Adicionado corte
Cut : 1 3 4 5 6 7 8 9 10 (9)
1 0
3 -0
4 -0
5 -0
6 -0
7 -0
8 -0
9 -0
10 0
begin edges
1 2
3 2
4 2
5 2
6 2
7 2
8 2
9 2
10 2
end edges
H    0     0                     280.0000000    0.00000   100%     -    0s
Callback 16
vtx : 1 2 3 4 5 6 
root : 6
#edges : 0
Adicionado corte
Cut : 1 2 3 4 5 7 8 9 10 (9)
1 -0
2 -0
3 -0
4 -0
5 -0
7 0
8 0
9 -0
10 0
begin edges
1 6
2 6
3 6
4 6
5 6
7 6
8 6
9 6
10 6
end edges
     0     0    0.00000    0    2  280.00000    0.00000   100%     -    0s
     0     0    0.00000    0    5  280.00000    0.00000   100%     -    0s
Callback 17
vtx : 1 2 3 4 9 10 
root : 10
1 2 1
2 9 1
9 10 1
#edges : 3
Adicionado corte
Cut : 3 4 5 6 7 8 (6)
3 0
4 0
5 0
6 0
7 0
8 0
begin edges
3 1
3 2
3 9
3 10
4 1
4 2
4 9
4 10
5 1
5 2
5 9
5 10
6 1
6 2
6 9
6 10
7 1
7 2
7 9
7 10
8 1
8 2
8 9
8 10
end edges
Callback 18
vtx : 1 2 3 4 5 7 8 9 
root : 5
#edges : 0
Adicionado corte
Cut : 1 2 3 4 6 7 8 9 10 (9)
1 -0
2 -0
3 0
4 0
6 -0
7 0
8 0
9 0
10 -0
begin edges
1 5
2 5
3 5
4 5
6 5
7 5
8 5
9 5
10 5
end edges
Callback 19
vtx : 1 2 3 4 5 7 8 9 
root : 3
#edges : 0
Adicionado corte
Cut : 1 2 4 5 6 7 8 9 10 (9)
1 -0
2 -0
4 0
5 0
6 -0
7 0
8 0
9 0
10 -0
begin edges
1 3
2 3
4 3
5 3
6 3
7 3
8 3
9 3
10 3
end edges
Callback 20
vtx : 1 2 3 4 5 7 8 9 
root : 4
#edges : 0
Adicionado corte
Cut : 1 2 3 5 6 7 8 9 10 (9)
1 -0
2 -0
3 0
5 0
6 -0
7 0
8 0
9 0
10 -0
begin edges
1 4
2 4
3 4
5 4
6 4
7 4
8 4
9 4
10 4
end edges
Callback 21
vtx : 1 2 3 4 5 9 10 
root : 1
1 9 1
3 10 1
9 10 1
#edges : 3
Adicionado corte
Cut : 2 4 5 6 7 8 (6)
2 -0
4 -0
5 -0
6 -0
7 -0
8 -0
begin edges
2 1
2 3
2 9
2 10
4 1
4 3
4 9
4 10
5 1
5 3
5 9
5 10
6 1
6 3
6 9
6 10
7 1
7 3
7 9
7 10
8 1
8 3
8 9
8 10
end edges
     0     0    0.00000    0    2  280.00000    0.00000   100%     -    0s
Callback 22
vtx : 1 2 3 4 5 8 
root : 4
4 8 1
#edges : 1
Adicionado corte
Cut : 1 2 3 5 6 7 9 10 (8)
1 -0
2 -0
3 -0
5 -0
6 -0
7 -0
9 -0
10 -0
begin edges
1 4
1 8
2 4
2 8
3 4
3 8
5 4
5 8
6 4
6 8
7 4
7 8
9 4
9 8
10 4
10 8
end edges
Callback 23
vtx : 1 2 3 4 5 7 
root : 4
4 7 1
#edges : 1
Adicionado corte
Cut : 1 2 3 5 6 8 9 10 (8)
1 -0
2 -0
3 -0
5 -0
6 -0
8 -0
9 -0
10 -0
begin edges
1 4
1 7
2 4
2 7
3 4
3 7
5 4
5 7
6 4
6 7
8 4
8 7
9 4
9 7
10 4
10 7
end edges
Callback 24
vtx : 1 2 3 4 5 7 8 9 10 
root : 4
2 7 1
4 7 1
#edges : 2
Adicionado corte
Cut : 1 3 5 6 8 9 10 (7)
1 -0
3 -0
5 -0
6 -0
8 -0
9 -0
10 -0
begin edges
1 2
1 4
1 7
3 2
3 4
3 7
5 2
5 4
5 7
6 2
6 4
6 7
8 2
8 4
8 7
9 2
9 4
9 7
10 2
10 4
10 7
end edges
Callback 25
vtx : 1 2 3 4 5 7 8 9 10 
root : 4
2 7 1
4 7 1
2 8 1
#edges : 3
Adicionado corte
Cut : 1 3 5 6 9 10 (6)
1 -0
3 -0
5 -0
6 -0
9 -0
10 -0
begin edges
1 2
1 4
1 7
1 8
3 2
3 4
3 7
3 8
5 2
5 4
5 7
5 8
6 2
6 4
6 7
6 8
9 2
9 4
9 7
9 8
10 2
10 4
10 7
10 8
end edges
Callback 26
vtx : 1 2 3 4 5 7 8 9 10 
root : 4
2 7 1
4 7 1
2 9 1
#edges : 3
Adicionado corte
Cut : 1 3 5 6 8 10 (6)
1 -0
3 -0
5 -0
6 -0
8 -0
10 -0
begin edges
1 2
1 4
1 7
1 9
3 2
3 4
3 7
3 9
5 2
5 4
5 7
5 9
6 2
6 4
6 7
6 9
8 2
8 4
8 7
8 9
10 2
10 4
10 7
10 9
end edges
Callback 27
vtx : 1 2 3 4 5 7 8 9 10 
root : 4
2 7 1
4 7 1
2 8 1
2 9 1
#edges : 4
Adicionado corte
Cut : 1 3 5 6 10 (5)
1 -0
3 -0
5 -0
6 -0
10 -0
begin edges
1 2
1 4
1 7
1 8
1 9
3 2
3 4
3 7
3 8
3 9
5 2
5 4
5 7
5 8
5 9
6 2
6 4
6 7
6 8
6 9
10 2
10 4
10 7
10 8
10 9
end edges
     0     0    0.05000    0    5  280.00000    0.05000   100%     -    0s
     0     0    1.50000    0    3  280.00000    1.50000  99.5%     -    0s
Callback 28
vtx : 1 2 3 4 5 9 10 
root : 10
2 9 1
3 10 1
#edges : 2
Adicionado corte
Cut : 1 2 4 5 6 7 8 9 (8)
1 -0
2 -0
4 0
5 0
6 0
7 0
8 -0
9 -0
begin edges
1 3
1 10
2 3
2 10
4 3
4 10
5 3
5 10
6 3
6 10
7 3
7 10
8 3
8 10
9 3
9 10
end edges
     0     0    2.78523    0   15  280.00000    2.78523  99.0%     -    0s
Callback 29
vtx : 1 2 3 4 5 6 9 
root : 6
5 6 1
2 9 1
#edges : 2
Adicionado corte
Cut : 1 2 3 4 7 8 9 10 (8)
1 0
2 0
3 0
4 0
7 0
8 0
9 0
10 0
begin edges
1 5
1 6
2 5
2 6
3 5
3 6
4 5
4 6
7 5
7 6
8 5
8 6
9 5
9 6
10 5
10 6
end edges
Callback 30
vtx : 1 2 9 
root : 1
1 9 1
2 9 1
#edges : 2
Adicionado corte
Cut : 3 4 5 6 7 8 10 (7)
3 -0
4 -0
5 -0
6 -0
7 -0
8 -0
10 -0
begin edges
3 1
3 2
3 9
4 1
4 2
4 9
5 1
5 2
5 9
6 1
6 2
6 9
7 1
7 2
7 9
8 1
8 2
8 9
10 1
10 2
10 9
end edges
H    0     0                     191.0000000    2.78523  98.5%     -    0s
     0     0    3.55882    0    8  191.00000    3.55882  98.1%     -    0s
     0     0    3.63889    0   13  191.00000    3.63889  98.1%     -    0s
     0     0    3.76471    0    7  191.00000    3.76471  98.0%     -    0s
     0     0    5.83333    0    7  191.00000    5.83333  96.9%     -    0s
Callback 31
vtx : 1 2 3 4 5 8 10 
root : 1
1 2 1
2 8 1
3 8 1
#edges : 3
Adicionado corte
Cut : 4 5 6 7 9 10 (6)
4 0
5 0
6 0
7 0
9 -0
10 -0
begin edges
4 1
4 2
4 3
4 8
5 1
5 2
5 3
5 8
6 1
6 2
6 3
6 8
7 1
7 2
7 3
7 8
9 1
9 2
9 3
9 8
10 1
10 2
10 3
10 8
end edges
Callback 32
vtx : 1 2 3 4 5 6 8 10 
root : 6
2 6 1
#edges : 1
Adicionado corte
Cut : 1 3 4 5 7 8 9 10 (8)
1 -0
3 -0
4 -0
5 -0
7 -0
8 -0
9 -0
10 -0
begin edges
1 2
1 6
3 2
3 6
4 2
4 6
5 2
5 6
7 2
7 6
8 2
8 6
9 2
9 6
10 2
10 6
end edges
Callback 33
vtx : 1 2 3 4 5 6 8 10 
root : 6
1 2 1
2 6 1
#edges : 2
Adicionado corte
Cut : 3 4 5 7 8 9 10 (7)
3 -0
4 -0
5 -0
7 -0
8 -0
9 -0
10 -0
begin edges
3 1
3 2
3 6
4 1
4 2
4 6
5 1
5 2
5 6
7 1
7 2
7 6
8 1
8 2
8 6
9 1
9 2
9 6
10 1
10 2
10 6
end edges
     0     0    6.25000    0   10  191.00000    6.25000  96.7%     -    0s
     0     0    7.53846    0   14  191.00000    7.53846  96.1%     -    0s
Callback 34
vtx : 1 2 3 4 5 9 10 
root : 10
2 9 1
3 10 1
9 10 1
#edges : 3
Adicionado corte
Cut : 1 4 5 6 7 8 (6)
1 -0
4 -0
5 -0
6 -0
7 -0
8 -0
begin edges
1 2
1 3
1 9
1 10
4 2
4 3
4 9
4 10
5 2
5 3
5 9
5 10
6 2
6 3
6 9
6 10
7 2
7 3
7 9
7 10
8 2
8 3
8 9
8 10
end edges
     0     0    7.53846    0   11  191.00000    7.53846  96.1%     -    0s
     0     0    8.60000    0   10  191.00000    8.60000  95.5%     -    0s
Callback 35
vtx : 1 2 3 4 5 6 7 8 10 
root : 6
2 6 1
2 7 1
#edges : 2
Adicionado corte
Cut : 1 3 4 5 8 9 10 (7)
1 -0
3 0
4 0
5 0
8 0
9 0
10 0
begin edges
1 2
1 6
1 7
3 2
3 6
3 7
4 2
4 6
4 7
5 2
5 6
5 7
8 2
8 6
8 7
9 2
9 6
9 7
10 2
10 6
10 7
end edges
     0     0    8.60000    0    7  191.00000    8.60000  95.5%     -    0s
     0     0    8.60000    0    9  191.00000    8.60000  95.5%     -    0s
     0     0    8.60000    0    9  191.00000    8.60000  95.5%     -    0s
Callback 36
vtx : 1 2 3 4 5 6 9 
root : 9
1 2 1
2 6 1
1 9 1
#edges : 3
Adicionado corte
Cut : 3 4 5 7 8 10 (6)
3 0
4 0
5 0
7 -0
8 -0
10 0
begin edges
3 1
3 2
3 6
3 9
4 1
4 2
4 6
4 9
5 1
5 2
5 6
5 9
7 1
7 2
7 6
7 9
8 1
8 2
8 6
8 9
10 1
10 2
10 6
10 9
end edges
Callback 37
vtx : 1 2 3 4 5 6 8 9 
root : 6
2 6 1
2 8 1
#edges : 2
Adicionado corte
Cut : 1 3 4 5 7 9 10 (7)
1 -0
3 -0
4 -0
5 -0
7 -0
9 -0
10 -0
begin edges
1 2
1 6
1 8
3 2
3 6
3 8
4 2
4 6
4 8
5 2
5 6
5 8
7 2
7 6
7 8
9 2
9 6
9 8
10 2
10 6
10 8
end edges
Callback 38
vtx : 1 2 3 4 5 6 8 9 
root : 6
2 6 1
2 8 1
4 8 1
#edges : 3
Adicionado corte
Cut : 1 3 5 7 9 10 (6)
1 -0
3 -0
5 -0
7 -0
9 -0
10 -0
begin edges
1 2
1 4
1 6
1 8
3 2
3 4
3 6
3 8
5 2
5 4
5 6
5 8
7 2
7 4
7 6
7 8
9 2
9 4
9 6
9 8
10 2
10 4
10 6
10 8
end edges
Callback 39
vtx : 1 2 3 4 5 6 8 9 
root : 6
2 6 1
2 8 1
3 8 1
#edges : 3
Adicionado corte
Cut : 1 4 5 7 9 10 (6)
1 -0
4 -0
5 -0
7 -0
9 -0
10 -0
begin edges
1 2
1 3
1 6
1 8
4 2
4 3
4 6
4 8
5 2
5 3
5 6
5 8
7 2
7 3
7 6
7 8
9 2
9 3
9 6
9 8
10 2
10 3
10 6
10 8
end edges
Callback 40
vtx : 1 2 3 4 5 6 8 9 
root : 6
1 2 1
2 6 1
2 8 1
#edges : 3
Adicionado corte
Cut : 3 4 5 7 9 10 (6)
3 -0
4 -0
5 -0
7 -0
9 -0
10 -0
begin edges
3 1
3 2
3 6
3 8
4 1
4 2
4 6
4 8
5 1
5 2
5 6
5 8
7 1
7 2
7 6
7 8
9 1
9 2
9 6
9 8
10 1
10 2
10 6
10 8
end edges
Callback 41
vtx : 1 2 3 4 5 6 8 9 
root : 6
2 6 1
2 8 1
3 8 1
4 8 1
#edges : 4
Adicionado corte
Cut : 1 5 7 9 10 (5)
1 -0
5 -0
7 -0
9 -0
10 -0
begin edges
1 2
1 3
1 4
1 6
1 8
5 2
5 3
5 4
5 6
5 8
7 2
7 3
7 4
7 6
7 8
9 2
9 3
9 4
9 6
9 8
10 2
10 3
10 4
10 6
10 8
end edges
     0     2   10.00000    0    9  191.00000   10.00000  94.8%     -    0s
Callback 42
vtx : 1 2 3 4 5 8 9 10 
root : 10
3 8 1
3 10 1
#edges : 2
Adicionado corte
Cut : 1 2 4 5 6 7 9 (7)
1 -0
2 -0
4 -0
5 0
6 -0
7 -0
9 -0
begin edges
1 3
1 8
1 10
2 3
2 8
2 10
4 3
4 8
4 10
5 3
5 8
5 10
6 3
6 8
6 10
7 3
7 8
7 10
9 3
9 8
9 10
end edges
Callback 43
vtx : 1 2 3 4 5 8 9 
root : 4
3 8 1
4 8 1
2 9 1
#edges : 3
Adicionado corte
Cut : 1 2 5 6 7 9 10 (7)
1 -0
2 -0
5 0
6 -0
7 -0
9 0
10 -0
begin edges
1 3
1 4
1 8
2 3
2 4
2 8
5 3
5 4
5 8
6 3
6 4
6 8
7 3
7 4
7 8
9 3
9 4
9 8
10 3
10 4
10 8
end edges
Callback 44
vtx : 1 2 3 4 5 8 10 
root : 4
3 8 1
4 8 1
3 10 1
#edges : 3
Adicionado corte
Cut : 1 2 5 6 7 9 (6)
1 -0
2 -0
5 0
6 -0
7 -0
9 0
begin edges
1 3
1 4
1 8
1 10
2 3
2 4
2 8
2 10
5 3
5 4
5 8
5 10
6 3
6 4
6 8
6 10
7 3
7 4
7 8
7 10
9 3
9 4
9 8
9 10
end edges
Callback 45
vtx : 1 2 3 4 5 8 9 
root : 4
2 8 1
3 8 1
4 8 1
2 9 1
#edges : 4
Adicionado corte
Cut : 1 5 6 7 10 (5)
1 -0
5 0
6 -0
7 -0
10 -0
begin edges
1 2
1 3
1 4
1 8
1 9
5 2
5 3
5 4
5 8
5 9
6 2
6 3
6 4
6 8
6 9
7 2
7 3
7 4
7 8
7 9
10 2
10 3
10 4
10 8
10 9
end edges
Callback 46
vtx : 1 2 3 4 5 8 10 
root : 4
2 8 1
3 8 1
4 8 1
3 10 1
#edges : 4
Adicionado corte
Cut : 1 5 6 7 9 (5)
1 -0
5 0
6 -0
7 -0
9 0
begin edges
1 2
1 3
1 4
1 8
1 10
5 2
5 3
5 4
5 8
5 10
6 2
6 3
6 4
6 8
6 10
7 2
7 3
7 4
7 8
7 10
9 2
9 3
9 4
9 8
9 10
end edges
Callback 47
vtx : 1 2 3 4 5 8 
root : 4
1 2 1
4 7 1.11022e-16
2 8 1
3 8 1
4 8 1
#edges : 5
Adicionado corte
Cut : 5 6 7 9 10 (5)
5 -0
6 -0
7 -0
9 0
10 -0
begin edges
5 1
5 2
5 3
5 4
5 8
6 1
6 2
6 3
6 4
6 8
7 1
7 2
7 3
7 4
7 8
9 1
9 2
9 3
9 4
9 8
10 1
10 2
10 3
10 4
10 8
end edges
Callback 48
vtx : 1 2 3 4 5 6 7 8 9 10 
root : 2
2 6 1
2 7 1
2 8 1
#edges : 3
Adicionado corte
Cut : 1 3 4 5 9 10 (6)
1 -0
3 -0
4 -0
5 0
9 -0
10 -0
begin edges
1 2
1 6
1 7
1 8
3 2
3 6
3 7
3 8
4 2
4 6
4 7
4 8
5 2
5 6
5 7
5 8
9 2
9 6
9 7
9 8
10 2
10 6
10 7
10 8
end edges
Callback 49
vtx : 1 2 3 4 5 8 9 
root : 1
2 8 1
3 8 1
1 9 1
2 9 1
#edges : 4
Adicionado corte
Cut : 4 5 6 7 10 (5)
4 0
5 -0
6 -0
7 -0
10 -0
begin edges
4 1
4 2
4 3
4 8
4 9
5 1
5 2
5 3
5 8
5 9
6 1
6 2
6 3
6 8
6 9
7 1
7 2
7 3
7 8
7 9
10 1
10 2
10 3
10 8
10 9
end edges
Callback 50
vtx : 1 2 3 4 5 7 8 
root : 4
4 7 1
2 8 1.66533e-16
3 8 1
4 8 1
#edges : 4
Adicionado corte
Cut : 1 2 5 6 9 10 (6)
1 -0
2 -0
5 -0
6 -0
9 0
10 -0
begin edges
1 3
1 4
1 7
1 8
2 3
2 4
2 7
2 8
5 3
5 4
5 7
5 8
6 3
6 4
6 7
6 8
9 3
9 4
9 7
9 8
10 3
10 4
10 7
10 8
end edges
Callback 51
vtx : 1 2 3 4 5 8 9 
root : 4
1 2 1
2 8 1
3 8 1
4 8 1
1 9 1
#edges : 5
Adicionado corte
Cut : 5 6 7 10 (4)
5 -0
6 -0
7 -0
10 -0
begin edges
5 1
5 2
5 3
5 4
5 8
5 9
6 1
6 2
6 3
6 4
6 8
6 9
7 1
7 2
7 3
7 4
7 8
7 9
10 1
10 2
10 3
10 4
10 8
10 9
end edges
Callback 52
vtx : 1 2 3 4 5 6 8 
root : 4
1 2 1
2 6 1
2 8 1
3 8 1
4 8 1
#edges : 5
Adicionado corte
Cut : 5 7 9 10 (4)
5 -0
7 -0
9 0
10 -0
begin edges
5 1
5 2
5 3
5 4
5 6
5 8
7 1
7 2
7 3
7 4
7 6
7 8
9 1
9 2
9 3
9 4
9 6
9 8
10 1
10 2
10 3
10 4
10 6
10 8
end edges
Callback 53
vtx : 1 2 3 4 8 
root : 4
1 2 1
2 8 1
3 8 1
4 8 1
#edges : 4
Adicionado corte
Cut : 5 6 7 9 10 (5)
5 -0
6 -0
7 -0
9 0
10 -0
begin edges
5 1
5 2
5 3
5 4
5 8
6 1
6 2
6 3
6 4
6 8
7 1
7 2
7 3
7 4
7 8
9 1
9 2
9 3
9 4
9 8
10 1
10 2
10 3
10 4
10 8
end edges
*   42    32              10      51.0000000   10.27273  79.9%   3.4    0s
Callback 54
vtx : 1 2 3 4 5 6 7 8 
root : 2
2 6 1
2 7 1
4 7 1
2 8 1
#edges : 4
Adicionado corte
Cut : 1 3 5 9 10 (5)
1 -0
3 -0
5 0
9 -0
10 -0
begin edges
1 2
1 4
1 6
1 7
1 8
3 2
3 4
3 6
3 7
3 8
5 2
5 4
5 6
5 7
5 8
9 2
9 4
9 6
9 7
9 8
10 2
10 4
10 6
10 7
10 8
end edges
Callback 55
vtx : 1 2 3 4 5 6 7 8 
root : 2
1 2 1
2 6 1
2 7 1
2 8 1
#edges : 4
Adicionado corte
Cut : 3 4 5 9 10 (5)
3 -0
4 -0
5 0
9 -0
10 -0
begin edges
3 1
3 2
3 6
3 7
3 8
4 1
4 2
4 6
4 7
4 8
5 1
5 2
5 6
5 7
5 8
9 1
9 2
9 6
9 7
9 8
10 1
10 2
10 6
10 7
10 8
end edges
Callback 56
vtx : 1 2 3 4 5 7 8 
root : 4
1 2 1
4 7 1
2 8 1
3 8 1
4 8 1
#edges : 5
Adicionado corte
Cut : 5 6 9 10 (4)
5 -0
6 -0
9 0
10 -0
begin edges
5 1
5 2
5 3
5 4
5 7
5 8
6 1
6 2
6 3
6 4
6 7
6 8
9 1
9 2
9 3
9 4
9 7
9 8
10 1
10 2
10 3
10 4
10 7
10 8
end edges
Callback 57
vtx : 1 2 3 4 5 6 7 8 
root : 2
1 2 1
2 6 1
2 7 1
4 7 1
2 8 1
#edges : 5
Adicionado corte
Cut : 3 5 9 10 (4)
3 -0
5 0
9 -0
10 -0
begin edges
3 1
3 2
3 4
3 6
3 7
3 8
5 1
5 2
5 4
5 6
5 7
5 8
9 1
9 2
9 4
9 6
9 7
9 8
10 1
10 2
10 4
10 6
10 7
10 8
end edges
Callback 58
vtx : 1 2 3 4 5 8 9 10 
root : 10
2 8 1
2 9 1
9 10 1
#edges : 3
Adicionado corte
Cut : 1 3 4 5 6 7 (6)
1 -0
3 0
4 -0
5 0
6 -0
7 -0
begin edges
1 2
1 8
1 9
1 10
3 2
3 8
3 9
3 10
4 2
4 8
4 9
4 10
5 2
5 8
5 9
5 10
6 2
6 8
6 9
6 10
7 2
7 8
7 9
7 10
end edges
Callback 59
vtx : 1 2 3 4 5 7 9 10 
root : 10
2 7 1
2 9 1
9 10 1
#edges : 3
Adicionado corte
Cut : 1 3 4 5 6 8 (6)
1 -0
3 0
4 -0
5 0
6 -0
8 -0
begin edges
1 2
1 7
1 9
1 10
3 2
3 7
3 9
3 10
4 2
4 7
4 9
4 10
5 2
5 7
5 9
5 10
6 2
6 7
6 9
6 10
8 2
8 7
8 9
8 10
end edges
Callback 60
vtx : 1 2 3 4 5 8 9 10 
root : 9
2 8 1
2 9 1
3 10 1
9 10 1
#edges : 4
Adicionado corte
Cut : 1 4 5 6 7 (5)
1 -0
4 -0
5 0
6 -0
7 -0
begin edges
1 2
1 3
1 8
1 9
1 10
4 2
4 3
4 8
4 9
4 10
5 2
5 3
5 8
5 9
5 10
6 2
6 3
6 8
6 9
6 10
7 2
7 3
7 8
7 9
7 10
end edges
Callback 61
vtx : 1 2 3 4 5 7 9 10 
root : 9
2 7 1
2 9 1
3 10 1
9 10 1
#edges : 4
Adicionado corte
Cut : 1 4 5 6 8 (5)
1 -0
4 -0
5 0
6 -0
8 -0
begin edges
1 2
1 3
1 7
1 9
1 10
4 2
4 3
4 7
4 9
4 10
5 2
5 3
5 7
5 9
5 10
6 2
6 3
6 7
6 9
6 10
8 2
8 3
8 7
8 9
8 10
end edges
Callback 62
vtx : 1 2 3 4 5 9 10 
root : 10
1 2 1
3 10 1
9 10 1
#edges : 3
Adicionado corte
Cut : 1 2 4 5 6 7 8 (7)
1 -0
2 -0
4 -0
5 0
6 -0
7 -0
8 -0
begin edges
1 3
1 9
1 10
2 3
2 9
2 10
4 3
4 9
4 10
5 3
5 9
5 10
6 3
6 9
6 10
7 3
7 9
7 10
8 3
8 9
8 10
end edges
Callback 63
vtx : 1 2 3 4 5 9 10 
root : 10
1 9 1
2 9 1
3 10 1
9 10 1
#edges : 4
Adicionado corte
Cut : 4 5 6 7 8 (5)
4 -0
5 0
6 -0
7 -0
8 -0
begin edges
4 1
4 2
4 3
4 9
4 10
5 1
5 2
5 3
5 9
5 10
6 1
6 2
6 3
6 9
6 10
7 1
7 2
7 3
7 9
7 10
8 1
8 2
8 3
8 9
8 10
end edges
Callback 64
vtx : 1 2 3 4 5 7 8 9 10 
root : 9
2 7 1
2 8 1
2 9 1
3 10 1
9 10 1
#edges : 5
Adicionado corte
Cut : 1 4 5 6 (4)
1 -0
4 -0
5 0
6 -0
begin edges
1 2
1 3
1 7
1 8
1 9
1 10
4 2
4 3
4 7
4 8
4 9
4 10
5 2
5 3
5 7
5 8
5 9
5 10
6 2
6 3
6 7
6 8
6 9
6 10
end edges
Callback 65
vtx : 1 2 3 4 5 8 9 10 
root : 9
3 8 1
4 8 1
3 10 1
9 10 1
#edges : 4
Adicionado corte
Cut : 1 2 5 6 7 (5)
1 -0
2 -0
5 0
6 -0
7 -0
begin edges
1 3
1 4
1 8
1 9
1 10
2 3
2 4
2 8
2 9
2 10
5 3
5 4
5 8
5 9
5 10
6 3
6 4
6 8
6 9
6 10
7 3
7 4
7 8
7 9
7 10
end edges
Callback 66
vtx : 1 2 3 4 5 8 9 10 
root : 9
3 8 1
1 9 1
3 10 1
9 10 1
#edges : 4
Adicionado corte
Cut : 2 4 5 6 7 (5)
2 -0
4 -0
5 0
6 -0
7 -0
begin edges
2 1
2 3
2 8
2 9
2 10
4 1
4 3
4 8
4 9
4 10
5 1
5 3
5 8
5 9
5 10
6 1
6 3
6 8
6 9
6 10
7 1
7 3
7 8
7 9
7 10
end edges
Callback 67
vtx : 1 2 3 4 5 6 9 10 
root : 10
1 2 1
2 6 1
2 9 1
3 10 1.88738e-14
9 10 1
#edges : 5
Adicionado corte
Cut : 3 4 5 7 8 (5)
3 0
4 -0
5 0
7 -0
8 -0
begin edges
3 1
3 2
3 6
3 9
3 10
4 1
4 2
4 6
4 9
4 10
5 1
5 2
5 6
5 9
5 10
7 1
7 2
7 6
7 9
7 10
8 1
8 2
8 6
8 9
8 10
end edges
Callback 68
vtx : 1 2 3 4 5 8 9 10 
root : 9
3 8 1
4 8 1
2 9 1
3 10 1
9 10 1
#edges : 5
Adicionado corte
Cut : 1 5 6 7 (4)
1 -0
5 0
6 -0
7 -0
begin edges
1 2
1 3
1 4
1 8
1 9
1 10
5 2
5 3
5 4
5 8
5 9
5 10
6 2
6 3
6 4
6 8
6 9
6 10
7 2
7 3
7 4
7 8
7 9
7 10
end edges
Callback 69
vtx : 1 2 3 4 5 8 9 10 
root : 9
3 8 1
1 9 1
2 9 1
3 10 1
9 10 1
#edges : 5
Adicionado corte
Cut : 4 5 6 7 (4)
4 -0
5 0
6 -0
7 -0
begin edges
4 1
4 2
4 3
4 8
4 9
4 10
5 1
5 2
5 3
5 8
5 9
5 10
6 1
6 2
6 3
6 8
6 9
6 10
7 1
7 2
7 3
7 8
7 9
7 10
end edges
Callback 70
vtx : 1 2 3 4 5 7 9 10 
root : 9
2 7 1
4 7 1
2 9 1
3 10 1
9 10 1
#edges : 5
Adicionado corte
Cut : 1 5 6 8 (4)
1 -0
5 0
6 -0
8 -0
begin edges
1 2
1 3
1 4
1 7
1 9
1 10
5 2
5 3
5 4
5 7
5 9
5 10
6 2
6 3
6 4
6 7
6 9
6 10
8 2
8 3
8 4
8 7
8 9
8 10
end edges
Callback 71
vtx : 1 2 3 4 5 7 9 10 
root : 9
2 7 1
1 9 1
2 9 1
3 10 1
9 10 1
#edges : 5
Adicionado corte
Cut : 4 5 6 8 (4)
4 -0
5 0
6 -0
8 -0
begin edges
4 1
4 2
4 3
4 7
4 9
4 10
5 1
5 2
5 3
5 7
5 9
5 10
6 1
6 2
6 3
6 7
6 9
6 10
8 1
8 2
8 3
8 7
8 9
8 10
end edges
Callback 72
vtx : 1 2 3 4 5 6 9 10 
root : 10
2 6 1
2 9 1
3 10 1
9 10 1
#edges : 4
Adicionado corte
Cut : 1 4 5 7 8 (5)
1 -0
4 -0
5 0
7 -0
8 -0
begin edges
1 2
1 3
1 6
1 9
1 10
4 2
4 3
4 6
4 9
4 10
5 2
5 3
5 6
5 9
5 10
7 2
7 3
7 6
7 9
7 10
8 2
8 3
8 6
8 9
8 10
end edges
Callback 73
vtx : 1 2 3 4 5 6 9 10 
root : 10
2 6 1
1 9 1
2 9 1
3 10 1
9 10 1
#edges : 5
Adicionado corte
Cut : 4 5 7 8 (4)
4 -0
5 0
7 -0
8 -0
begin edges
4 1
4 2
4 3
4 6
4 9
4 10
5 1
5 2
5 3
5 6
5 9
5 10
7 1
7 2
7 3
7 6
7 9
7 10
8 1
8 2
8 3
8 6
8 9
8 10
end edges
Callback 74
vtx : 1 2 3 4 5 6 8 9 
root : 8
2 6 1
2 8 1
3 8 1.13798e-15
2 9 1
3 10 2.498e-16
9 10 1.94289e-16
#edges : 6
Adicionado corte
Cut : 1 3 4 5 7 10 (6)
1 -0
3 -0
4 -0
5 0
7 -0
10 -0
begin edges
1 2
1 6
1 8
1 9
3 2
3 6
3 8
3 9
4 2
4 6
4 8
4 9
5 2
5 6
5 8
5 9
7 2
7 6
7 8
7 9
10 2
10 6
10 8
10 9
end edges
Callback 75
vtx : 1 2 3 4 5 6 7 8 10 
root : 2
2 6 1
2 7 1
2 8 1
3 8 1
#edges : 4
Adicionado corte
Cut : 1 4 5 9 10 (5)
1 -0
4 -0
5 0
9 -0
10 -0
begin edges
1 2
1 3
1 6
1 7
1 8
4 2
4 3
4 6
4 7
4 8
5 2
5 3
5 6
5 7
5 8
9 2
9 3
9 6
9 7
9 8
10 2
10 3
10 6
10 7
10 8
end edges
Callback 76
vtx : 1 2 3 4 5 7 8 9 10 
root : 9
4 7 1
3 8 1
4 8 1
3 10 1
9 10 1
#edges : 5
Adicionado corte
Cut : 1 2 5 6 (4)
1 -0
2 -0
5 0
6 -0
begin edges
1 3
1 4
1 7
1 8
1 9
1 10
2 3
2 4
2 7
2 8
2 9
2 10
5 3
5 4
5 7
5 8
5 9
5 10
6 3
6 4
6 7
6 8
6 9
6 10
end edges
Callback 77
vtx : 1 2 3 4 5 8 9 10 
root : 9
3 8 1
4 8 1
1 9 1
3 10 1
9 10 1
#edges : 5
Adicionado corte
Cut : 2 5 6 7 (4)
2 -0
5 0
6 -0
7 -0
begin edges
2 1
2 3
2 4
2 8
2 9
2 10
5 1
5 3
5 4
5 8
5 9
5 10
6 1
6 3
6 4
6 8
6 9
6 10
7 1
7 3
7 4
7 8
7 9
7 10
end edges
Callback 78
vtx : 1 2 3 4 5 8 9 10 
root : 9
1 2 1
3 8 1
4 8 1
2 9 1
3 10 1
9 10 1
#edges : 6
Adicionado corte
Cut : 5 6 7 (3)
5 0
6 -0
7 -0
begin edges
5 1
5 2
5 3
5 4
5 8
5 9
5 10
6 1
6 2
6 3
6 4
6 8
6 9
6 10
7 1
7 2
7 3
7 4
7 8
7 9
7 10
end edges
Callback 79
vtx : 1 2 3 4 5 7 8 9 10 
root : 9
1 2 1
2 7 1
3 8 1
2 9 1
3 10 1
9 10 1
#edges : 6
Adicionado corte
Cut : 4 5 6 (3)
4 -0
5 0
6 -0
begin edges
4 1
4 2
4 3
4 7
4 8
4 9
4 10
5 1
5 2
5 3
5 7
5 8
5 9
5 10
6 1
6 2
6 3
6 7
6 8
6 9
6 10
end edges
Callback 80
vtx : 1 2 3 4 5 7 8 9 10 
root : 9
1 2 1
2 7 1
4 7 1
2 9 1
3 10 1
9 10 1
#edges : 6
Adicionado corte
Cut : 5 6 8 (3)
5 0
6 -0
8 -0
begin edges
5 1
5 2
5 3
5 4
5 7
5 9
5 10
6 1
6 2
6 3
6 4
6 7
6 9
6 10
8 1
8 2
8 3
8 4
8 7
8 9
8 10
end edges
Callback 81
vtx : 1 2 3 4 5 7 8 9 10 
root : 9
2 7 1
3 8 1
4 8 1
2 9 1
3 10 1
9 10 1
#edges : 6
Adicionado corte
Cut : 1 5 6 (3)
1 -0
5 0
6 -0
begin edges
1 2
1 3
1 4
1 7
1 8
1 9
1 10
5 2
5 3
5 4
5 7
5 8
5 9
5 10
6 2
6 3
6 4
6 7
6 8
6 9
6 10
end edges
Callback 82
vtx : 1 2 3 4 5 6 7 8 9 
root : 8
2 6 1
2 7 1
2 8 1
2 9 1
#edges : 4
Adicionado corte
Cut : 1 3 4 5 10 (5)
1 -0
3 -0
4 -0
5 0
10 -0
begin edges
1 2
1 6
1 7
1 8
1 9
3 2
3 6
3 7
3 8
3 9
4 2
4 6
4 7
4 8
4 9
5 2
5 6
5 7
5 8
5 9
10 2
10 6
10 7
10 8
10 9
end edges
Callback 83
vtx : 1 2 3 4 5 6 7 8 10 
root : 2
2 6 1
2 7 1
2 8 1
3 8 1
3 10 1
#edges : 5
Adicionado corte
Cut : 1 4 5 9 (4)
1 -0
4 -0
5 0
9 -0
begin edges
1 2
1 3
1 6
1 7
1 8
1 10
4 2
4 3
4 6
4 7
4 8
4 10
5 2
5 3
5 6
5 7
5 8
5 10
9 2
9 3
9 6
9 7
9 8
9 10
end edges
Callback 84
vtx : 1 2 3 4 5 6 7 8 
root : 2
2 6 1
2 7 1
4 7 1
3 8 1
#edges : 4
Adicionado corte
Cut : 1 3 5 8 9 10 (6)
1 -0
3 -0
5 0
8 -0
9 -0
10 -0
begin edges
1 2
1 4
1 6
1 7
3 2
3 4
3 6
3 7
5 2
5 4
5 6
5 7
8 2
8 4
8 6
8 7
9 2
9 4
9 6
9 7
10 2
10 4
10 6
10 7
end edges
Callback 85
vtx : 1 2 3 4 5 7 8 9 10 
root : 9
1 2 1
2 7 1
3 8 1
4 8 1
2 9 1
3 10 1
9 10 1
#edges : 7
Adicionado corte
Cut : 5 6 (2)
5 0
6 -0
begin edges
5 1
5 2
5 3
5 4
5 7
5 8
5 9
5 10
6 1
6 2
6 3
6 4
6 7
6 8
6 9
6 10
end edges
Callback 86
vtx : 1 2 3 4 5 6 7 8 10 
root : 2
1 2 1
2 6 1
2 7 1
2 8 1
3 8 1
#edges : 5
Adicionado corte
Cut : 4 5 9 10 (4)
4 -0
5 0
9 -0
10 -0
begin edges
4 1
4 2
4 3
4 6
4 7
4 8
5 1
5 2
5 3
5 6
5 7
5 8
9 1
9 2
9 3
9 6
9 7
9 8
10 1
10 2
10 3
10 6
10 7
10 8
end edges
Callback 87
vtx : 1 2 3 4 5 6 8 9 10 
root : 9
2 6 1
3 8 1
2 9 1
3 10 1
9 10 1
#edges : 5
Adicionado corte
Cut : 1 4 5 7 (4)
1 -0
4 -0
5 0
7 -0
begin edges
1 2
1 3
1 6
1 8
1 9
1 10
4 2
4 3
4 6
4 8
4 9
4 10
5 2
5 3
5 6
5 8
5 9
5 10
7 2
7 3
7 6
7 8
7 9
7 10
end edges
Callback 88
vtx : 1 2 3 4 5 6 7 8 9 
root : 6
2 6 1
2 7 1
4 8 1
2 9 1
#edges : 4
Adicionado corte
Cut : 1 3 4 5 8 10 (6)
1 -0
3 -0
4 -0
5 0
8 -0
10 -0
begin edges
1 2
1 6
1 7
1 9
3 2
3 6
3 7
3 9
4 2
4 6
4 7
4 9
5 2
5 6
5 7
5 9
8 2
8 6
8 7
8 9
10 2
10 6
10 7
10 9
end edges
Callback 89
vtx : 1 2 3 4 5 6 7 9 
root : 6
2 6 1
2 7 1
4 7 1
2 9 1
#edges : 4
Adicionado corte
Cut : 1 3 5 8 10 (5)
1 -0
3 -0
5 0
8 -0
10 -0
begin edges
1 2
1 4
1 6
1 7
1 9
3 2
3 4
3 6
3 7
3 9
5 2
5 4
5 6
5 7
5 9
8 2
8 4
8 6
8 7
8 9
10 2
10 4
10 6
10 7
10 9
end edges
Callback 90
vtx : 1 2 3 4 5 6 7 9 
root : 6
2 6 1
2 7 1
1 9 1
2 9 1
3 10 1.11022e-16
#edges : 5
Adicionado corte
Cut : 3 4 5 8 10 (5)
3 0
4 -0
5 0
8 -0
10 -0
begin edges
3 1
3 2
3 6
3 7
3 9
4 1
4 2
4 6
4 7
4 9
5 1
5 2
5 6
5 7
5 9
8 1
8 2
8 6
8 7
8 9
10 1
10 2
10 6
10 7
10 9
end edges
Callback 91
vtx : 1 2 3 4 5 6 8 9 10 
root : 6
1 2 1
2 6 1
2 8 1
3 8 2.08167e-16
2 9 1
3 10 1
#edges : 6
Adicionado corte
Cut : 3 4 5 7 10 (5)
3 0
4 -0
5 0
7 -0
10 -0
begin edges
3 1
3 2
3 6
3 8
3 9
4 1
4 2
4 6
4 8
4 9
5 1
5 2
5 6
5 8
5 9
7 1
7 2
7 6
7 8
7 9
10 1
10 2
10 6
10 8
10 9
end edges
Callback 92
vtx : 1 2 3 4 5 6 7 8 10 
root : 2
2 6 1
2 7 1
4 7 1
2 8 1
3 8 1
#edges : 5
Adicionado corte
Cut : 1 5 9 10 (4)
1 -0
5 0
9 -0
10 -0
begin edges
1 2
1 3
1 4
1 6
1 7
1 8
5 2
5 3
5 4
5 6
5 7
5 8
9 2
9 3
9 4
9 6
9 7
9 8
10 2
10 3
10 4
10 6
10 7
10 8
end edges
Callback 93
vtx : 1 2 3 4 8 9 
root : 2
2 8 1
4 8 1
1 9 1
2 9 1
#edges : 4
Adicionado corte
Cut : 3 5 6 7 10 (5)
3 -0
5 -0
6 -0
7 -0
10 -0
begin edges
3 1
3 2
3 4
3 8
3 9
5 1
5 2
5 4
5 8
5 9
6 1
6 2
6 4
6 8
6 9
7 1
7 2
7 4
7 8
7 9
10 1
10 2
10 4
10 8
10 9
end edges
Callback 94
vtx : 1 2 3 4 5 6 7 9 10 
root : 2
2 6 1
2 7 1
2 9 1
9 10 1
#edges : 4
Adicionado corte
Cut : 1 3 4 5 8 (5)
1 -0
3 -0
4 -0
5 0
8 -0
begin edges
1 2
1 6
1 7
1 9
1 10
3 2
3 6
3 7
3 9
3 10
4 2
4 6
4 7
4 9
4 10
5 2
5 6
5 7
5 9
5 10
8 2
8 6
8 7
8 9
8 10
end edges
Callback 95
vtx : 1 2 3 4 5 6 7 8 9 10 
root : 10
2 6 1
2 7 1
2 8 1
2 9 1
9 10 1
#edges : 5
Adicionado corte
Cut : 1 3 4 5 (4)
1 -0
3 0
4 -0
5 0
begin edges
1 2
1 6
1 7
1 8
1 9
1 10
3 2
3 6
3 7
3 8
3 9
3 10
4 2
4 6
4 7
4 8
4 9
4 10
5 2
5 6
5 7
5 8
5 9
5 10
end edges
Callback 96
vtx : 1 2 3 4 5 6 7 8 9 10 
root : 10
2 6 1
2 7 1
2 8 1
3 8 1
2 9 1
3 10 1
#edges : 6
Adicionado corte
Cut : 1 4 5 (3)
1 -0
4 -0
5 0
begin edges
1 2
1 3
1 6
1 7
1 8
1 9
1 10
4 2
4 3
4 6
4 7
4 8
4 9
4 10
5 2
5 3
5 6
5 7
5 8
5 9
5 10
end edges
Callback 97
vtx : 1 2 3 4 5 6 8 9 10 
root : 6
1 2 1
2 6 1
2 8 1
3 8 1
3 10 1
#edges : 5
Adicionado corte
Cut : 4 5 7 9 (4)
4 -0
5 0
7 -0
9 -0
begin edges
4 1
4 2
4 3
4 6
4 8
4 10
5 1
5 2
5 3
5 6
5 8
5 10
7 1
7 2
7 3
7 6
7 8
7 10
9 1
9 2
9 3
9 6
9 8
9 10
end edges
Callback 98
vtx : 1 2 3 4 5 6 7 8 9 10 
root : 6
1 2 1
2 6 1
2 7 1
2 8 1
2 9 1
3 10 1
#edges : 6
Adicionado corte
Cut : 3 4 5 10 (4)
3 -0
4 -0
5 0
10 -0
begin edges
3 1
3 2
3 6
3 7
3 8
3 9
4 1
4 2
4 6
4 7
4 8
4 9
5 1
5 2
5 6
5 7
5 8
5 9
10 1
10 2
10 6
10 7
10 8
10 9
end edges
Callback 99
vtx : 1 2 3 4 5 6 8 9 
root : 3
2 6 1
2 8 1
3 8 1
1 9 1
2 9 1
#edges : 5
Adicionado corte
Cut : 4 5 7 10 (4)
4 -0
5 0
7 -0
10 -0
begin edges
4 1
4 2
4 3
4 6
4 8
4 9
5 1
5 2
5 3
5 6
5 8
5 9
7 1
7 2
7 3
7 6
7 8
7 9
10 1
10 2
10 3
10 6
10 8
10 9
end edges
Callback 100
vtx : 1 2 3 4 5 6 7 8 9 
root : 3
2 6 1
2 8 1
3 8 1
4 8 1
2 9 1
#edges : 5
Adicionado corte
Cut : 1 5 7 10 (4)
1 -0
5 0
7 -0
10 -0
begin edges
1 2
1 3
1 4
1 6
1 8
1 9
5 2
5 3
5 4
5 6
5 8
5 9
7 2
7 3
7 4
7 6
7 8
7 9
10 2
10 3
10 4
10 6
10 8
10 9
end edges
Callback 101
vtx : 1 2 3 4 5 6 7 8 9 
root : 3
2 6 1
2 7 1
4 7 1
2 8 1
3 8 1
2 9 1
#edges : 6
Adicionado corte
Cut : 1 5 10 (3)
1 -0
5 0
10 -0
begin edges
1 2
1 3
1 4
1 6
1 7
1 8
1 9
5 2
5 3
5 4
5 6
5 7
5 8
5 9
10 2
10 3
10 4
10 6
10 7
10 8
10 9
end edges
Callback 102
vtx : 1 2 3 4 5 6 7 8 9 10 
root : 3
2 6 1
2 7 1
4 7 1
3 8 1
2 9 1
9 10 1
#edges : 6
Adicionado corte
Cut : 1 2 4 5 6 7 9 10 (8)
1 -0
2 -0
4 -0
5 0
6 -0
7 -0
9 -0
10 -0
begin edges
1 3
1 8
2 3
2 8
4 3
4 8
5 3
5 8
6 3
6 8
7 3
7 8
9 3
9 8
10 3
10 8
end edges
Callback 103
vtx : 1 2 3 4 7 8 9 10 
root : 9
1 2 1
2 7 1
2 8 1
4 8 1
2 9 1
#edges : 5
Adicionado corte
Cut : 3 5 6 10 (4)
3 -0
5 0
6 -0
10 -0
begin edges
3 1
3 2
3 4
3 7
3 8
3 9
5 1
5 2
5 4
5 7
5 8
5 9
6 1
6 2
6 4
6 7
6 8
6 9
10 1
10 2
10 4
10 7
10 8
10 9
end edges
Callback 104
vtx : 1 2 3 4 5 6 7 8 
root : 2
1 2 1
2 6 1
2 7 1
4 7 1
3 8 1
#edges : 5
Adicionado corte
Cut : 3 5 8 9 10 (5)
3 -0
5 0
8 -0
9 -0
10 -0
begin edges
3 1
3 2
3 4
3 6
3 7
5 1
5 2
5 4
5 6
5 7
8 1
8 2
8 4
8 6
8 7
9 1
9 2
9 4
9 6
9 7
10 1
10 2
10 4
10 6
10 7
end edges
Callback 105
vtx : 1 2 3 4 5 6 7 8 10 
root : 2
1 2 1
2 6 1
2 7 1
2 8 1
3 8 1
3 10 1
#edges : 6
Adicionado corte
Cut : 4 5 9 (3)
4 -0
5 0
9 -0
begin edges
4 1
4 2
4 3
4 6
4 7
4 8
4 10
5 1
5 2
5 3
5 6
5 7
5 8
5 10
9 1
9 2
9 3
9 6
9 7
9 8
9 10
end edges
Callback 106
vtx : 1 2 3 4 5 6 7 8 10 
root : 2
2 6 1
2 7 1
4 7 1
2 8 1
3 8 1
3 10 1
#edges : 6
Adicionado corte
Cut : 1 5 9 (3)
1 -0
5 0
9 -0
begin edges
1 2
1 3
1 4
1 6
1 7
1 8
1 10
5 2
5 3
5 4
5 6
5 7
5 8
5 10
9 2
9 3
9 4
9 6
9 7
9 8
9 10
end edges
Callback 107
vtx : 1 2 3 4 5 6 8 9 10 
root : 8
2 6 1
2 8 1
4 8 1
2 9 1
3 10 1
#edges : 5
Adicionado corte
Cut : 1 3 5 7 10 (5)
1 -0
3 -0
5 0
7 -0
10 -0
begin edges
1 2
1 4
1 6
1 8
1 9
3 2
3 4
3 6
3 8
3 9
5 2
5 4
5 6
5 8
5 9
7 2
7 4
7 6
7 8
7 9
10 2
10 4
10 6
10 8
10 9
end edges
Callback 108
vtx : 1 2 3 4 5 6 8 9 
root : 2
1 2 1
2 6 1
2 8 1
4 8 1
1 9 1
#edges : 5
Adicionado corte
Cut : 3 5 7 10 (4)
3 -0
5 -0
7 -0
10 -0
begin edges
3 1
3 2
3 4
3 6
3 8
3 9
5 1
5 2
5 4
5 6
5 8
5 9
7 1
7 2
7 4
7 6
7 8
7 9
10 1
10 2
10 4
10 6
10 8
10 9
end edges
Callback 109
vtx : 1 2 3 4 5 6 7 8 
root : 3
1 2 1
2 6 1
2 7 1
4 7 1
2 8 1
3 8 1
#edges : 6
Adicionado corte
Cut : 5 9 10 (3)
5 0
9 -0
10 -0
begin edges
5 1
5 2
5 3
5 4
5 6
5 7
5 8
9 1
9 2
9 3
9 4
9 6
9 7
9 8
10 1
10 2
10 3
10 4
10 6
10 7
10 8
end edges
Callback 110
vtx : 1 2 3 4 5 6 7 8 9 10 
root : 3
2 6 1
2 7 1
4 7 1
2 8 1
3 8 1
2 9 1
9 10 1
#edges : 7
Adicionado corte
Cut : 1 5 (2)
1 -0
5 0
begin edges
1 2
1 3
1 4
1 6
1 7
1 8
1 9
1 10
5 2
5 3
5 4
5 6
5 7
5 8
5 9
5 10
end edges
Callback 111
vtx : 1 2 3 4 5 6 7 8 9 
root : 3
1 2 1
2 6 1
2 7 1
2 8 1
3 8 1
2 9 1
#edges : 6
Adicionado corte
Cut : 4 5 10 (3)
4 -0
5 0
10 -0
begin edges
4 1
4 2
4 3
4 6
4 7
4 8
4 9
5 1
5 2
5 3
5 6
5 7
5 8
5 9
10 1
10 2
10 3
10 6
10 7
10 8
10 9
end edges
Callback 112
vtx : 1 2 3 4 5 6 8 9 10 
root : 3
1 2 1
2 6 1
2 8 1
3 8 1
2 9 1
9 10 1
#edges : 6
Adicionado corte
Cut : 4 5 7 (3)
4 -0
5 0
7 -0
begin edges
4 1
4 2
4 3
4 6
4 8
4 9
4 10
5 1
5 2
5 3
5 6
5 8
5 9
5 10
7 1
7 2
7 3
7 6
7 8
7 9
7 10
end edges
Callback 113
vtx : 1 2 3 4 5 6 7 8 9 
root : 8
1 2 1
2 6 1
2 7 1
4 7 1
2 8 1
2 9 1
#edges : 6
Adicionado corte
Cut : 3 5 10 (3)
3 -0
5 0
10 -0
begin edges
3 1
3 2
3 4
3 6
3 7
3 8
3 9
5 1
5 2
5 4
5 6
5 7
5 8
5 9
10 1
10 2
10 4
10 6
10 7
10 8
10 9
end edges
Callback 114
vtx : 1 2 3 4 5 6 7 8 9 10 
root : 2
1 2 1
2 6 1
2 7 1
2 8 1
1 9 1
9 10 1
#edges : 6
Adicionado corte
Cut : 3 4 5 (3)
3 -0
4 -0
5 0
begin edges
3 1
3 2
3 6
3 7
3 8
3 9
3 10
4 1
4 2
4 6
4 7
4 8
4 9
4 10
5 1
5 2
5 6
5 7
5 8
5 9
5 10
end edges
Callback 115
vtx : 1 2 3 4 5 6 7 8 9 10 
root : 2
1 2 1
2 6 1
2 7 1
2 8 1
3 8 1
3 10 1
9 10 1
#edges : 7
Adicionado corte
Cut : 4 5 (2)
4 -0
5 0
begin edges
4 1
4 2
4 3
4 6
4 7
4 8
4 9
4 10
5 1
5 2
5 3
5 6
5 7
5 8
5 9
5 10
end edges
Callback 116
vtx : 1 2 3 4 5 6 8 10 
root : 2
1 2 1
2 6 1
2 8 1
3 8 1
4 8 1
3 10 1
#edges : 6
Adicionado corte
Cut : 5 7 9 (3)
5 0
7 -0
9 -0
begin edges
5 1
5 2
5 3
5 4
5 6
5 8
5 10
7 1
7 2
7 3
7 4
7 6
7 8
7 10
9 1
9 2
9 3
9 4
9 6
9 8
9 10
end edges
Callback 117
vtx : 1 2 3 4 5 6 8 9 10 
root : 1
2 6 1
2 8 1
3 8 1
4 8 1
1 9 1
2 9 1
#edges : 6
Adicionado corte
Cut : 5 7 10 (3)
5 -0
7 -0
10 -0
begin edges
5 1
5 2
5 3
5 4
5 6
5 8
5 9
7 1
7 2
7 3
7 4
7 6
7 8
7 9
10 1
10 2
10 3
10 4
10 6
10 8
10 9
end edges
Callback 118
vtx : 1 2 3 4 5 6 7 8 9 10 
root : 9
1 2 1
2 6 1
2 7 1
4 7 1
2 9 1
9 10 1
#edges : 6
Adicionado corte
Cut : 3 5 8 (3)
3 -0
5 0
8 -0
begin edges
3 1
3 2
3 4
3 6
3 7
3 9
3 10
5 1
5 2
5 4
5 6
5 7
5 9
5 10
8 1
8 2
8 4
8 6
8 7
8 9
8 10
end edges
Callback 119
vtx : 1 2 3 4 5 6 7 8 9 10 
root : 9
1 2 1
2 6 1
2 7 1
2 8 2.22045e-16
4 8 1
2 9 1
9 10 1
#edges : 7
Adicionado corte
Cut : 3 4 5 8 (4)
3 -0
4 -0
5 -0
8 -0
begin edges
3 1
3 2
3 6
3 7
3 9
3 10
4 1
4 2
4 6
4 7
4 9
4 10
5 1
5 2
5 6
5 7
5 9
5 10
8 1
8 2
8 6
8 7
8 9
8 10
end edges
Callback 120
vtx : 1 2 3 4 5 6 8 9 10 
root : 9
1 2 1
2 6 1
2 8 1
4 8 1
2 9 1
9 10 1
#edges : 6
Adicionado corte
Cut : 3 5 7 (3)
3 -0
5 0
7 -0
begin edges
3 1
3 2
3 4
3 6
3 8
3 9
3 10
5 1
5 2
5 4
5 6
5 8
5 9
5 10
7 1
7 2
7 4
7 6
7 8
7 9
7 10
end edges
Callback 121
vtx : 1 2 3 4 5 6 7 8 9 
root : 9
1 2 1
2 6 1
2 7 1
2 8 1
3 8 1
4 8 1
2 9 1
#edges : 7
Adicionado corte
Cut : 5 10 (2)
5 0
10 -0
begin edges
5 1
5 2
5 3
5 4
5 6
5 7
5 8
5 9
10 1
10 2
10 3
10 4
10 6
10 7
10 8
10 9
end edges
Callback 122
vtx : 1 2 3 4 5 6 8 9 10 
root : 6
1 2 1
2 6 1
2 8 1
3 8 1
4 8 1
2 9 1
3 10 1
#edges : 7
Adicionado corte
Cut : 5 7 (2)
5 0
7 -0
begin edges
5 1
5 2
5 3
5 4
5 6
5 8
5 9
5 10
7 1
7 2
7 3
7 4
7 6
7 8
7 9
7 10
end edges
Callback 123
vtx : 1 2 3 4 5 6 7 8 10 
root : 6
1 2 1
2 6 1
2 7 1
2 8 1
3 8 1
4 8 1
3 10 1
#edges : 7
Adicionado corte
Cut : 5 9 (2)
5 0
9 -0
begin edges
5 1
5 2
5 3
5 4
5 6
5 7
5 8
5 10
9 1
9 2
9 3
9 4
9 6
9 7
9 8
9 10
end edges
Callback 124
vtx : 1 2 3 4 5 6 7 8 9 10 
root : 9
1 2 1
2 6 1
2 7 1
4 7 1
3 8 1
2 9 1
3 10 1
#edges : 7
Adicionado corte
Cut : 3 5 8 10 (4)
3 -0
5 0
8 -0
10 -0
begin edges
3 1
3 2
3 4
3 6
3 7
3 9
5 1
5 2
5 4
5 6
5 7
5 9
8 1
8 2
8 4
8 6
8 7
8 9
10 1
10 2
10 4
10 6
10 7
10 9
end edges
Callback 125
vtx : 1 2 3 4 5 6 7 9 10 
root : 9
1 2 1
2 6 1
2 7 1
4 7 1
2 9 1
3 10 1
9 10 1
#edges : 7
Adicionado corte
Cut : 5 8 (2)
5 0
8 -0
begin edges
5 1
5 2
5 3
5 4
5 6
5 7
5 9
5 10
8 1
8 2
8 3
8 4
8 6
8 7
8 9
8 10
end edges
Callback 126
vtx : 1 2 3 4 5 6 7 8 9 10 
root : 7
1 2 1
2 6 1
4 8 1
2 9 1
3 10 1
9 10 1
#edges : 6
Adicionado corte
Cut : 1 2 3 4 5 6 8 9 10 (9)
1 -0
2 -0
3 -0
4 -0
5 -0
6 -0
8 -0
9 -0
10 -0
begin edges
1 7
2 7
3 7
4 7
5 7
6 7
8 7
9 7
10 7
end edges
Callback 127
vtx : 1 2 3 4 5 6 7 8 9 10 
root : 8
1 2 1
2 6 1
2 7 1
2 8 1
3 8 1
4 8 1
2 9 1
3 10 1
#edges : 8
Adicionado corte
Cut : 5 (1)
5 0
begin edges
5 1
5 2
5 3
5 4
5 6
5 7
5 8
5 9
5 10
end edges

Cutting planes:
  Cover: 8
  MIR: 15
  Inf proof: 1
  Lazy constraints: 110

Explored 570 nodes (1774 simplex iterations) in 0.56 seconds
Thread count was 4 (of 4 available processors)

Solution count 4: 51 191 280 480 

Optimal solution found (tolerance 1.00e-04)
Best objective 5.100000000000e+01, best bound 5.100000000000e+01, gap 0.0000%

User-callback calls 1579, time in user-callback 0.14 sec
Tree: 1 1 1 1 0 0 0 1 0 0 
1 2 1
2 8 1
3 8 1
4 8 1
0 10 481 481 481 481 481 481 10 481 
10 0 481 481 481 10 1 1 1 481 
481 481 0 481 481 481 481 10 481 1 
481 481 481 0 481 481 10 10 481 481 
481 481 481 481 0 100 100 481 481 481 
481 10 481 481 100 0 481 481 481 481 
481 1 481 10 100 481 0 481 481 481 
481 1 10 10 481 481 481 0 481 481 
10 1 481 481 481 481 481 481 0 10 
481 481 1 481 481 481 481 481 10 0 
